db/inputs/14985317294904213662914411240851814777.smt2
(set-logic QF_FP)
(declare-const x0 (_ FloatingPoint 11 53))
(declare-const x1 (_ FloatingPoint 11 53))
(declare-const x2 (_ FloatingPoint 11 53))
(declare-const x3 (_ FloatingPoint 11 53))
(declare-const x4 (_ FloatingPoint 11 53))
(declare-const x5 (_ FloatingPoint 11 53))
(declare-const x6 (_ FloatingPoint 11 53))
(declare-const x7 (_ FloatingPoint 11 53))
(declare-const x8 (_ FloatingPoint 11 53))
(declare-const x9 (_ FloatingPoint 11 53))
(declare-const x10 (_ FloatingPoint 11 53))
(declare-const x11 (_ FloatingPoint 11 53))
(declare-const x12 (_ FloatingPoint 11 53))
(declare-const x13 (_ FloatingPoint 11 53))
(declare-const x14 (_ FloatingPoint 11 53))
(declare-const x15 (_ FloatingPoint 11 53))
(declare-const x16 (_ FloatingPoint 11 53))
(declare-const x17 (_ FloatingPoint 11 53))
(declare-const x18 (_ FloatingPoint 11 53))
(declare-const x19 (_ FloatingPoint 11 53))
(declare-const x20 (_ FloatingPoint 11 53))
(declare-const x21 (_ FloatingPoint 11 53))
(declare-const x22 (_ FloatingPoint 11 53))
(assert (fp.lt (fp.neg (fp.mul RNE x18 x1)) (fp.div RNE (fp.sub RNE x8 x21) (fp.div RNE x21 x4))))
(assert (fp.geq (fp.neg (fp.mul RNE x11 x3)) (fp.div RNE (fp.div RNE x18 x15) (fp.mul RNE x2 x0))))
(assert (fp.eq (fp.div RNE (fp.mul RNE x2 x5) (fp.div RNE x22 x22)) (fp.div RNE (fp.mul RNE x11 x19) (fp.div RNE x20 x11))))
(assert (fp.geq (fp.mul RNE (fp.mul RNE x6 x5) (fp.add RNE x15 x11)) (fp.neg (fp.mul RNE x22 x16))))
(assert (fp.eq (fp.add RNE (fp.sub RNE x20 x3) (fp.mul RNE x20 x15)) (fp.add RNE (fp.add RNE x10 x18) (fp.sub RNE x11 x10))))
(assert (fp.gt (fp.neg (fp.div RNE x22 x15)) (fp.mul RNE (fp.sub RNE x9 x6) (fp.add RNE x5 x2))))
(assert (fp.geq (fp.div RNE (fp.neg x14) (fp.mul RNE x16 x14)) (fp.neg (fp.mul RNE x3 x14))))
(assert (fp.lt (fp.mul RNE (fp.add RNE x7 x11) (fp.mul RNE x8 x11)) (fp.neg (fp.neg x7))))
(assert (fp.leq (fp.div RNE (fp.sub RNE x10 x22) (fp.neg x20)) (fp.div RNE (fp.add RNE x11 x11) (fp.neg x3))))
(check-sat)
