db/data/14985317294904213662914411240851814777.z3.out
-------------------
2500.208695184
